************************************************************************
file with basedata            : mm53_.bas
initial value random generator: 1907935190
************************************************************************
projects                      :  1
jobs (incl. supersource/sink ):  12
horizon                       :  70
RESOURCES
  - renewable                 :  2   R
  - nonrenewable              :  2   N
  - doubly constrained        :  0   D
************************************************************************
PROJECT INFORMATION:
pronr.  #jobs rel.date duedate tardcost  MPM-Time
    1     10      0        9        9        9
************************************************************************
PRECEDENCE RELATIONS:
jobnr.    #modes  #successors   successors
   1        1          3           2   3   4
   2        3          2           5   6
   3        3          2           5  10
   4        3          1           9
   5        3          2           7  11
   6        3          3           7   8  10
   7        3          1           9
   8        3          1          11
   9        3          1          12
  10        3          1          12
  11        3          1          12
  12        1          0        
************************************************************************
REQUESTS/DURATIONS:
jobnr. mode duration  R 1  R 2  N 1  N 2
------------------------------------------------------------------------
  1      1     0       0    0    0    0
  2      1     1       6   10    3    7
         2     2       6    8    3    7
         3     6       1    7    2    5
  3      1     3       8    5    7    7
         2     6       4    2    7    4
         3     6       3    3    7    6
  4      1     1       3    9    7    9
         2     4       3    8    6    8
         3     7       3    5    6    8
  5      1     2       6   10    8    6
         2     5       4    6    8    6
         3    10       3    5    7    5
  6      1     1       6   10    8   10
         2     4       6    5    4   10
         3     4       4    2    6   10
  7      1     1       6    6    3    9
         2     6       5    6    3    7
         3    10       5    6    3    4
  8      1     4      10    7    5    5
         2     7       9    5    4    4
         3    10       9    4    3    4
  9      1     3       6    7    9    6
         2     3       4    9    9    7
         3     6       2    3    4    3
 10      1     1      10    9    4    7
         2     2       6    8    2    2
         3     2       5    8    3    1
 11      1     2      10    2    7    5
         2     8       9    2    4    5
         3     9       9    1    4    3
 12      1     0       0    0    0    0
************************************************************************
RESOURCEAVAILABILITIES:
  R 1  R 2  N 1  N 2
   21   21   46   52
************************************************************************
MAXIMAL LAGS:
from  to  type  delay
    1   12   ES      0
    1    2   ES      0
    2   12   ES      0
    1    3   ES      0
    3   12   ES      0
    1    4   ES      0
    4   12   ES      0
    1    5   ES      0
    5   12   ES      0
    1    6   ES      0
    6   12   ES      0
    1    7   ES      0
    7   12   ES      0
    1    8   ES      0
    8   12   ES      0
    1    9   ES      0
    9   12   ES      0
    1   10   ES      0
   10   12   ES      0
    1   11   ES      0
   11   12   ES      0
    1   12   ES      0
    2    5   SS     -6
    2    5   SE     -9
    2    5   ES      2
    2    5   EE     -7
    2    6   SS     -5
    2    6   SE     10
    2    6   ES     -2
    2    6   EE    -10
    3    5   SS     10
    3    5   SE     -6
    3    5   ES      3
    3    5   EE     -6
    3   10   SS      6
    3   10   SE      8
    3   10   ES      7
    3   10   EE    -12
    4    9   SS    -11
    4    9   SE      0
    4    9   ES     -6
    4    9   EE     10
    5    7   SS     -9
    5    7   SE     -3
    5    7   ES    -12
    5    7   EE     -5
    5   11   SS      9
    5   11   SE     -2
    5   11   ES     -7
    5   11   EE      0
    6    7   SS     -5
    6    7   SE     -1
    7    6   SE      0
    6    7   ES      0
    6    7   EE    -11
    6    8   SS     -8
    6    8   SE     -8
    6    8   ES      7
    6    8   EE     -5
    6   10   SS      7
    6   10   SE      9
    6   10   ES     -4
    6   10   EE      1
    7    9   SS      9
    7    9   SE      6
    7    9   ES     10
    7    9   EE      8
    8   11   SS     -3
    8   11   SE     -6
    8   11   ES      8
    8   11   EE     11
************************************************************************
